NAME : ct_7_n_4_k10_t_60
COMMENT : (ct_7_n_4_k10_t_60, Min no of trucks: 4, Optimal value: 83.00665616195536, Split: Yes)
TYPE : SDVRP
DIMENSION : 8
EDGE_WEIGHT_TYPE : EUC_2D
CAPACITY : 10
NODE_COORD_SECTION
1 0 0
2 2 4
3 8 1
4 -1 -10
5 -5 -6
6 -7 5
7 10 -6
8 -11 -5
DEMAND_SECTION
1 0
2 3.4
3 4.2
4 2.6
5 2.3
6 3.1
7 4.6
8 3.9
DEPOT_SECTION
 1
EOF